<instance format="XCSP3" type="CSP">
  <variables>
    <var id="x0"> 1 3 5 9 12 </var>
    <var id="x1"> 3 5 7 </var>
    <var id="x2"> 1..3 7 12 </var>
    <var id="x3"> 1 5 9 10 12 </var>
    <var id="x4"> 3 5 7 9 10 </var>
    <var id="x5"> 2 3 10 </var>
    <var id="x6"> 2 7 9 </var>
    <var id="x7"> 2 3 5 10 12 </var>
    <var id="x8"> 0 8 9 12 </var>
    <var id="x9"> 0 9 13 16 </var>
    <var id="x10"> 1 16 17 </var>
    <var id="x11"> 8 16 </var>
    <var id="x12"> 1 12 16 17 </var>
    <var id="x13"> 0 1 9 16 17 </var>
    <var id="x14"> 1 8 12 13 17 </var>
    <var id="x15"> 0 1 8 9 12 </var>
    <var id="x16"> 0 2 7 17 </var>
    <var id="x17"> 0 4 10 12 </var>
    <var id="x18"> 4 10 16 17 </var>
    <var id="x19"> 2 4 10 16 </var>
    <var id="x20"> 4 7 12 16 17 </var>
    <var id="x21"> 0 2 7 16 17 </var>
    <var id="x22"> 0 7 16 17 </var>
    <var id="x23"> 0 2 4 10 12 </var>
    <var id="x24"> 0 3 5 8 </var>
    <var id="x25"> 3 5 17 </var>
    <var id="x26"> 3 5 8 17 </var>
    <var id="x27"> 0 3 8 10 </var>
    <var id="x28"> 8 10 16 </var>
    <var id="x29"> 2 3 8 10 16 </var>
    <var id="x30"> 3 8 16 </var>
    <var id="x31"> 5 8 10 17 </var>
    <var id="x32"> 3 8 11 </var>
    <var id="x33"> 1 3 12 17 </var>
    <var id="x34"> 1 11 12 </var>
    <var id="x35"> 1 8 12 16 </var>
    <var id="x36"> 16 17 </var>
    <var id="x37"> 1 8 12 17 </var>
    <var id="x38"> 1 3 8 12 </var>
    <var id="x39"> 3 5..7 </var>
    <var id="x40"> 3 4 6 7 </var>
    <var id="x41"> 0 3 5 7 </var>
    <var id="x42"> 0 3 4 9 </var>
    <var id="x43"> 0 3 5 7 9 </var>
    <var id="x44"> 3 4 14 </var>
    <var id="x45"> 0 7 9 14 </var>
    <var id="x46"> 5 7 </var>
    <var id="x47"> 12 13 17 </var>
    <var id="x48"> 6 7 12 17 </var>
    <var id="x49"> 12 13 </var>
    <var id="x50"> 7 8 15 17 </var>
    <var id="x51"> 7 13 16 </var>
    <var id="x52"> 6 16 17 </var>
    <var id="x53"> 7 16 17 </var>
    <var id="x54"> 8 12 </var>
    <var id="x55"> 0 1 5 10 </var>
    <var id="x56"> 0 3 8 10 15 </var>
    <var id="x57"> 0 3 5 10 </var>
    <var id="x58"> 1 3 10 17 </var>
    <var id="x59"> 1 8 10 15 </var>
    <var id="x60"> 1 3 15 17 </var>
    <var id="x61"> 0 1 17 </var>
    <var id="x62"> 0 3 5 8 10 </var>
    <var id="x63"> 3..5 8 9 11 </var>
    <var id="x64"> 1 3 4 7 </var>
    <var id="x65"> 3 5 7 8 </var>
    <var id="x66"> 3 5 7 9 </var>
    <var id="x67"> 1 3 4 11 </var>
    <var id="x68"> 1 3 4 7 </var>
    <var id="x69"> 1 7 9 11 </var>
    <var id="x70"> 3 7 8 </var>
    <var id="x71"> 3 13 </var>
    <var id="x72"> 10 11 13 </var>
    <var id="x73"> 2 3 7 8 </var>
    <var id="x74"> 3 8 10 </var>
    <var id="x75"> 3 7 10 13 16 </var>
    <var id="x76"> 2 3 8 10 11 16 </var>
    <var id="x77"> 3 7 16 </var>
    <var id="x78"> 7 8 10 13 </var>
    <var id="x79"> 5 7 </var>
    <var id="x80"> 4 10 12 </var>
    <var id="x81"> 1 4 10 16 </var>
    <var id="x82"> 4 10 14 16 </var>
    <var id="x83"> 4 5 10 12 </var>
    <var id="x84"> 7 12 14 16 </var>
    <var id="x85"> 1 5 7 10 12 </var>
    <var id="x86"> 1 5 12 </var>
    <var id="x87"> 3 13 14 17 </var>
    <var id="x88"> 3 6 15 17 </var>
    <var id="x89"> 3 4 6 17 </var>
    <var id="x90"> 0 13 </var>
    <var id="x91"> 3 4 6 17 </var>
    <var id="x92"> 6 14 15 </var>
    <var id="x93"> 0 14 17 </var>
    <var id="x94"> 3 6 13 14 </var>
    <var id="x95"> 1 5 9 12 14 </var>
    <var id="x96"> 1 4 12 </var>
    <var id="x97"> 5 8 </var>
    <var id="x98"> 4 8 10 14 </var>
    <var id="x99"> 1 4 12 </var>
    <var id="x100"> 8 12 14 </var>
    <var id="x101"> 1 5 8 10 12 </var>
    <var id="x102"> 1 5 8 9 12 </var>
    <var id="x103"> 0 3 5 11 </var>
    <var id="x104"> 3 5 12 14 </var>
    <var id="x105"> 0 5 10..12 </var>
    <var id="x106"> 3 12 </var>
    <var id="x107"> 0 14 </var>
    <var id="x108"> 0 3 5 10 12 </var>
    <var id="x109"> 3 12 14 </var>
    <var id="x110"> 3 6..8 17 </var>
    <var id="x111"> 0 9 </var>
    <var id="x112"> 0 2 3 7 8 17 </var>
    <var id="x113"> 0 3 7 9 </var>
    <var id="x114"> 6 8 </var>
    <var id="x115"> 0 7 9 17 </var>
    <var id="x116"> 0 2 3 8 </var>
    <var id="x117"> 0 2 3 8 9 </var>
    <var id="x118"> 3 5 9 11 </var>
    <var id="x119"> 3 11 16 </var>
    <var id="x120"> 16 </var>
    <var id="x121"> 7 9 11 16 </var>
    <var id="x122"> 3 5 </var>
    <var id="x123"> 5 7 13 </var>
    <var id="x124"> 3 5 9 </var>
    <var id="x125"> 3 4 9 </var>
    <var id="x126"> 1 3 9 12 14 </var>
    <var id="x127"> 3 15 </var>
    <var id="x128"> 3 4 9 12 15 </var>
    <var id="x129"> 1 6 12 14 15 </var>
    <var id="x130"> 1 3 4 12 15 </var>
    <var id="x131"> 1 9 14 </var>
    <var id="x132"> 3 6 12 14 </var>
    <var id="x133"> 0 3 8 </var>
    <var id="x134"> 3 8 15 17 </var>
    <var id="x135"> 1..3 12 17 </var>
    <var id="x136"> 1 8 12 15 </var>
    <var id="x137"> 0 2 17 </var>
    <var id="x138"> 0 2 3 8 12 </var>
    <var id="x139"> 3 8 12 </var>
    <var id="x140"> 0..3 8 12 </var>
  </variables>
  <constraints>
    <group>
      <allDifferent> %... </allDifferent>
      <args> x0 x1 x2 x3 x4 x5 x6 x7 </args>
      <args> x8 x9 x10 x11 x12 x13 x14 x15 </args>
      <args> x16 x17 x18 x19 x20 x21 x22 x23 </args>
      <args> x24 x25 x26 x27 x28 x29 x30 x31 </args>
      <args> x32 x33 x34 x35 x36 x37 x38 </args>
      <args> x39 x40 x41 x42 x43 x44 x45 x46 </args>
      <args> x47 x48 x49 x50 x51 x52 x53 x54 </args>
      <args> x55 x56 x57 x58 x59 x60 x61 x62 </args>
      <args> x63 x64 x65 x66 x67 x68 x69 x70 </args>
      <args> x71 x72 x73 x74 x75 x76 x77 x78 </args>
      <args> x79 x80 x81 x82 x83 x84 x85 x86 </args>
      <args> x87 x88 x89 x90 x91 x92 x93 x94 </args>
      <args> x95 x96 x97 x98 x99 x100 x101 x102 </args>
      <args> x103 x104 x105 x106 x107 x108 x109 </args>
      <args> x110 x111 x112 x113 x114 x115 x116 x117 </args>
      <args> x118 x119 x120 x121 x122 x123 x124 </args>
      <args> x125 x126 x127 x128 x129 x130 x131 x132 </args>
      <args> x133 x134 x135 x136 x137 x138 x139 x140 </args>
      <args> x24 x32 x63 x103 x118 x125 x133 </args>
      <args> x0 x25 x47 x71 x87 x95 x104 x126 </args>
      <args> x1 x26 x39 x79 x88 x110 x134 </args>
      <args> x2 x33 x40 x48 x64 x89 x96 x135 </args>
      <args> x3 x34 x49 x55 x72 x90 x105 x111 </args>
      <args> x16 x41 x50 x65 x73 x97 x112 x127 </args>
      <args> x8 x17 x27 x42 x56 x74 x80 x128 </args>
      <args> x4 x9 x43 x51 x57 x66 x75 x113 </args>
      <args> x10 x18 x52 x58 x67 x81 x91 x119 </args>
      <args> x28 x35 x59 x92 x114 x120 x129 x136 </args>
      <args> x5 x11 x19 x29 x44 x76 x82 x98 </args>
      <args> x12 x20 x60 x68 x77 x99 x106 x130 </args>
      <args> x6 x21 x36 x53 x93 x107 x137 </args>
      <args> x13 x22 x45 x61 x69 x115 x121 x131 </args>
      <args> x7 x23 x62 x83 x108 x116 x122 x138 </args>
      <args> x30 x70 x84 x94 x100 x109 x132 x139 </args>
      <args> x14 x31 x37 x46 x78 x85 x101 x123 </args>
      <args> x15 x38 x54 x86 x102 x117 x124 x140 </args>
    </group>
  </constraints>
</instance>

